c SAT Generator for power-law distributed variable frequencies
c -g u -v 20 -c 91 -k 3 -p 2.750000 -b 3.200000 -f /home/schmidt/Devel/ni-kop-sat/data/ensemble/ruf20-91/ruf20-91-20 -u 1 -U 1 -s 3347726649
p cnf 20 91
-3 -11 17 0
-9 -13 -17 0
9 -12 -19 0
-7 -8 16 0
-2 -11 -20 0
13 17 18 0
-2 -4 -6 0
6 -10 -19 0
6 10 19 0
-12 14 -19 0
1 -7 -13 0
1 13 17 0
-10 13 -18 0
-10 12 16 0
-6 12 19 0
3 15 -18 0
-4 -5 -8 0
-11 -15 20 0
1 7 17 0
6 7 -18 0
-4 -14 -16 0
1 3 17 0
-7 -12 13 0
-13 -15 18 0
-2 12 -15 0
-1 -14 -15 0
1 8 -18 0
11 -16 19 0
-11 -13 -14 0
-11 -14 -19 0
-4 8 19 0
-3 15 -16 0
-9 15 -17 0
1 -6 16 0
2 8 17 0
3 -8 18 0
15 19 -20 0
-1 -12 19 0
-8 14 15 0
-4 7 10 0
-5 12 -15 0
-15 16 -19 0
2 3 20 0
-2 -7 13 0
-13 17 18 0
2 -8 17 0
2 5 11 0
2 13 15 0
4 9 -16 0
6 -13 18 0
-4 13 14 0
-8 16 -17 0
-9 -11 16 0
-5 -12 20 0
-3 15 19 0
-1 -8 -15 0
-1 -6 18 0
-5 6 -20 0
-2 -13 14 0
-3 -7 -19 0
-10 16 -17 0
-7 -14 -20 0
1 8 9 0
5 -12 -14 0
9 -14 18 0
-4 11 -13 0
11 -13 -19 0
18 19 -20 0
-3 -4 -14 0
5 9 -13 0
12 15 -16 0
-6 -8 -11 0
-8 14 -19 0
2 -6 20 0
8 -9 19 0
-4 11 -12 0
2 8 -9 0
3 14 -17 0
-3 8 15 0
3 15 17 0
14 15 -17 0
-3 -18 -20 0
14 16 -17 0
-6 -15 -17 0
-2 -4 5 0
-1 5 8 0
12 13 -20 0
-4 -11 -17 0
11 -15 17 0
3 -8 -13 0
4 8 15 0
